%%% static parameters %%%
timespan = 1;
Fact = [4];
Distr1 = [15];
Distr2 = [30];
Clients_N = [300];
Demand_W = [15];
Lt0 = [4];
Lt1 = [4];
SS_ = [0.85];
DS_D = [8];
K = [200];
MA = [500];
%%% dynamic parameters %%%
lost_ratio_sales_ret_th = 0.1933801185764713;
lost_ratio_sales_ret_w = 3;
lost_ratio_sales_dis_th = 0.4843504203637461;
lost_ratio_sales_dis_w = 78;
lost_ratio_sales_fac_th = 0.041037050185278146;
lost_ratio_sales_fac_w = 74;
stock_customer_MA_mean_relative_th = 0.7604318560117587;
stock_customer_MA_mean_relative_w = 52;
stock_distributor_MA_mean_relative_th = 0.08410109105735708;
stock_distributor_MA_mean_relative_w = 52;
stock_retailer_MA_mean_relative_th = 0.40571275393097583;
stock_retailer_MA_mean_relative_w = 77;
stock_factory_MA_mean_relative_th = 0.33025156376273;
stock_factory_MA_mean_relative_w = 63;
